data;
param nombreJob := 5;
param nombreRessource := 3;
param duree := 1 7 2 2 3 10 4 7 5 6;
param capaciteRessource := 1 4 2 12 3 11;
param besoinRessource : 1 2 3 :=
                    1   3 6 3
                    2   1 5 5
                    3   2 7 5
                    4   2 3 5
                    5   1 4 2;
end;

